************************************************************************
file with basedata            : mm59_.bas
initial value random generator: 5755
************************************************************************
projects                      :  1
jobs (incl. supersource/sink ):  12
horizon                       :  71
RESOURCES
  - renewable                 :  2   R
  - nonrenewable              :  2   N
  - doubly constrained        :  0   D
************************************************************************
PROJECT INFORMATION:
pronr.  #jobs rel.date duedate tardcost  MPM-Time
    1     10      0       13        5       13
************************************************************************
PRECEDENCE RELATIONS:
jobnr.    #modes  #successors   successors
   1        1          3           2   3   4
   2        3          2           7  10
   3        3          2           5   8
   4        3          3           6   8   9
   5        3          2           7   9
   6        3          1          11
   7        3          1          11
   8        3          1          10
   9        3          1          12
  10        3          1          12
  11        3          1          12
  12        1          0        
************************************************************************
REQUESTS/DURATIONS:
jobnr. mode duration  R 1  R 2  N 1  N 2
------------------------------------------------------------------------
  1      1     0       0    0    0    0
  2      1     2       6    7    8    0
         2     4       5    6    8    0
         3     9       1    5    7    0
  3      1     3       9    7    0    2
         2     3       9    7    4    0
         3    10       8    7    2    0
  4      1     4       8    5    6    0
         2     5       8    5    3    0
         3     5       8    5    0    7
  5      1     4       4    7    0    3
         2     7       4    5    3    0
         3     7       4    6    0    3
  6      1     5       3   10    6    0
         2     7       2    5    0    9
         3     7       3    5    6    0
  7      1     1       9    6    0    9
         2     4       7    4    0    7
         3     4       6    5    6    0
  8      1     2       6    3   10    0
         2     5       6    2    6    0
         3     5       4    2    0    4
  9      1     2       7    2    0    9
         2     9       6    1    8    0
         3    10       4    1    6    0
 10      1     6       1    7    8    0
         2     6       1    6    9    0
         3     8       1    4    0    3
 11      1     4       7    7    0   10
         2     5       6    5    0    9
         3     6       6    2    0    7
 12      1     0       0    0    0    0
************************************************************************
RESOURCEAVAILABILITIES:
  R 1  R 2  N 1  N 2
   23   25   44   41
************************************************************************
